DIMENSION: 101
64
63
32
90
11
62
10
88
31
70
30
20
1
69
27
101
58
40
53
28
26
12
76
50
33
81
51
9
66
65
71
35
34
78
79
3
77
68
80
29
24
54
55
25
4
39
67
23
56
75
72
21
73
74
22
41
2
57
15
43
42
14
44
38
86
16
91
100
37
92
87
97
95
13
94
6
96
99
59
98
85
93
61
17
45
84
5
60
83
18
89
52
7
82
8
46
48
47
19
36
49
